Normalized Data/p02_30_normalized_split0.vrp
NAME:p02_30_NORMALIZED_split
BEST_KNOWN: 0
COMMENT: 0
DIMENSION: 291
CAPACITY: 100
EDGE_WEIGHT_FORMAT: FUNCTION
EDGE_WEIGHT_TYPE: EXACT_2D
NODE_COORD_SECTION
1 0.00000 0.00000
2 -28 32
3 -28 32
4 -28 32
5 -28 32
6 -28 32
7 -28 32
8 27 -28
9 27 -28
10 27 -28
11 5 -7
12 5 -7
13 5 -7
14 -42 10
15 -42 10
16 -42 10
17 -42 10
18 -41 -3
19 -41 -3
20 -41 -3
21 -41 -3
22 -37 4
23 -37 4
24 -37 4
25 -37 4
26 -6 9
27 -6 9
28 -6 9
29 -6 9
30 -6 9
31 -6 9
32 27 3
33 27 3
34 27 3
35 27 3
36 27 3
37 -18 -8
38 -18 -8
39 -18 -8
40 -41 -35
41 -41 -35
42 -41 -35
43 -41 -35
44 -41 -35
45 8 2
46 8 2
47 8 2
48 8 2
49 -33 0
50 -33 0
51 -33 0
52 -33 0
53 -46 22
54 -46 22
55 -46 22
56 -46 22
57 -37 -48
58 -37 -48
59 -37 -48
60 -37 -48
61 -37 -48
62 -37 -48
63 49 -7
64 49 -7
65 -28 -42
66 -28 -42
67 -28 -42
68 -34 -11
69 -34 -11
70 45 35
71 -13 14
72 -13 14
73 -13 14
74 -13 14
75 -13 14
76 -40 6
77 -40 6
78 -40 6
79 -40 6
80 -40 6
81 -40 6
82 13 -23
83 13 -23
84 13 -23
85 2 19
86 2 19
87 2 19
88 -10 -30
89 -10 -30
90 -10 -30
91 -10 -30
92 29 28
93 29 28
94 36 37
95 36 37
96 36 37
97 36 37
98 16 -50
99 16 -50
100 16 -50
101 16 -50
102 16 -50
103 16 -50
104 16 -50
105 48 23
106 48 23
107 48 23
108 48 23
109 17 28
110 17 28
111 17 28
112 -32 -38
113 -32 -38
114 -32 -38
115 27 -3
116 27 -3
117 27 -3
118 10 -45
119 10 -45
120 10 -45
121 10 -45
122 10 -45
123 22 -38
124 22 -38
125 22 -38
126 -35 39
127 -35 39
128 -35 39
129 -35 39
130 -35 39
131 -35 39
132 10 20
133 -21 32
134 -21 32
135 -9 33
136 -9 33
137 -9 33
138 -17 13
139 -17 13
140 -17 13
141 -4 -48
142 -4 -48
143 8 -27
144 8 -27
145 8 -27
146 19 -45
147 19 -45
148 19 -45
149 19 -45
150 19 -45
151 19 -45
152 -13 24
153 -13 24
154 -13 24
155 -13 24
156 -13 24
157 -44 0
158 -44 0
159 -44 0
160 50 -33
161 50 -33
162 50 -33
163 50 -33
164 50 -33
165 50 -33
166 -38 19
167 -38 19
168 -38 19
169 -38 19
170 -38 19
171 -38 19
172 18 -7
173 18 -7
174 18 -7
175 18 -7
176 -33 -6
177 -33 -6
178 -33 -6
179 27 -44
180 27 -44
181 27 -44
182 27 -44
183 27 -44
184 -24 -20
185 -24 -20
186 -24 -20
187 -24 -20
188 38 20
189 38 20
190 -1 -10
191 -1 -10
192 45 3
193 45 3
194 45 3
195 45 3
196 45 3
197 45 3
198 45 3
199 -30 36
200 -30 36
201 -30 36
202 -37 26
203 -37 26
204 -37 26
205 -48 49
206 -48 49
207 -48 49
208 -48 49
209 -24 18
210 -24 18
211 -24 18
212 16 23
213 16 23
214 16 23
215 16 23
216 38 -49
217 38 -49
218 38 -49
219 38 -49
220 38 -49
221 8 28
222 8 28
223 8 28
224 30 35
225 30 35
226 30 35
227 -2 -23
228 -2 -23
229 -2 -23
230 -2 -23
231 22 -23
232 22 -23
233 22 -23
234 22 -23
235 -39 0
236 -39 0
237 -39 0
238 11 38
239 11 38
240 11 38
241 13 -41
242 13 -41
243 13 -41
244 13 -41
245 13 -41
246 18 -35
247 18 -35
248 18 -35
249 18 -35
250 18 -35
251 18 -35
252 18 -35
253 5 -22
254 5 -22
255 5 -22
256 5 -22
257 5 -22
258 5 -22
259 5 -22
260 23 41
261 23 41
262 23 41
263 -26 31
264 -26 31
265 -26 31
266 -26 31
267 -26 31
268 -26 31
269 -26 31
270 19 -25
271 19 -25
272 -19 -2
273 -19 -2
274 -19 -2
275 12 -26
276 12 -26
277 -46 4
278 -46 4
279 -46 4
280 -46 4
281 -37 15
282 -37 15
283 -37 15
284 -37 15
285 -37 15
286 37 -35
287 37 -35
288 37 -35
289 -13 -45
290 -13 -45
291 -13 -45
DEMAND_SECTION
1 0
2 20
3 20
4 5
5 1
6 1
7 1
8 20
9 20
10 10
11 20
12 5
13 1
14 10
15 5
16 1
17 1
18 20
19 20
20 1
21 1
22 20
23 5
24 1
25 1
26 10
27 5
28 1
29 1
30 1
31 1
32 20
33 10
34 1
35 1
36 1
37 10
38 5
39 1
40 10
41 1
42 1
43 1
44 1
45 20
46 10
47 5
48 1
49 20
50 5
51 1
52 1
53 20
54 20
55 1
56 1
57 20
58 5
59 1
60 1
61 1
62 1
63 10
64 5
65 20
66 20
67 10
68 20
69 5
70 20
71 20
72 20
73 5
74 1
75 1
76 20
77 5
78 1
79 1
80 1
81 1
82 20
83 10
84 5
85 20
86 10
87 1
88 10
89 1
90 1
91 1
92 10
93 5
94 20
95 10
96 1
97 1
98 20
99 20
100 5
101 1
102 1
103 1
104 1
105 20
106 20
107 1
108 1
109 20
110 20
111 5
112 20
113 20
114 10
115 20
116 20
117 1
118 20
119 10
120 1
121 1
122 1
123 20
124 20
125 1
126 20
127 10
128 5
129 1
130 1
131 1
132 20
133 20
134 5
135 20
136 10
137 1
138 10
139 5
140 1
141 20
142 5
143 20
144 20
145 5
146 20
147 10
148 1
149 1
150 1
151 1
152 10
153 5
154 1
155 1
156 1
157 10
158 1
159 1
160 20
161 20
162 1
163 1
164 1
165 1
166 20
167 20
168 1
169 1
170 1
171 1
172 20
173 1
174 1
175 1
176 20
177 20
178 5
179 20
180 20
181 1
182 1
183 1
184 20
185 10
186 1
187 1
188 20
189 1
190 10
191 5
192 20
193 20
194 5
195 1
196 1
197 1
198 1
199 20
200 20
201 10
202 20
203 20
204 10
205 20
206 10
207 5
208 1
209 20
210 10
211 1
212 10
213 5
214 1
215 1
216 10
217 1
218 1
219 1
220 1
221 20
222 10
223 5
224 10
225 1
226 1
227 20
228 10
229 5
230 1
231 20
232 5
233 1
234 1
235 20
236 20
237 1
238 10
239 5
240 1
241 20
242 10
243 5
244 1
245 1
246 20
247 10
248 5
249 1
250 1
251 1
252 1
253 20
254 20
255 5
256 1
257 1
258 1
259 1
260 20
261 1
262 1
263 20
264 10
265 5
266 1
267 1
268 1
269 1
270 20
271 10
272 10
273 1
274 1
275 20
276 10
277 20
278 20
279 1
280 1
281 20
282 20
283 1
284 1
285 1
286 10
287 5
288 1
289 20
290 20
291 5
DEPOT_SECTION
1
-1
EOF