Normalized Data/p02_30_normalized_split0.sol
290 -11 270 122 124 123 249 245 246 82 -12 10 257 253 252 227 228 229 226 -14 16 15 13 281 283 280 282 284 166 165 -19 17 18 20 156 158 157 279 278 276 277 -24 21 22 23 78 80 77 75 79 76 234 235 236 -29 26 27 263 198 200 3 2 5 6 4 1 138 -30 28 25 73 72 71 70 208 210 209 139 137 -33 34 31 35 32 114 115 116 172 171 173 174 -38 37 36 175 176 177 50 51 49 48 271 273 272 -45 46 44 47 -63 62 195 192 196 194 193 191 197 187 188 211 212 -64 66 65 111 112 113 -67 68 42 41 40 39 43 56 59 58 61 57 60 186 183 185 184 -74 207 205 206 204 130 126 125 128 129 127 199 264 -83 81 274 143 142 144 254 255 256 258 -84 85 86 108 109 110 214 213 131 -90 89 88 87 290 289 288 140 141 189 190 -91 92 225 224 223 261 259 260 239 237 238 222 220 221 -95 96 93 94 69 107 104 106 105 -121 119 120 117 118 99 98 101 100 103 102 97 244 242 241 -134 136 135 133 132 267 268 262 266 265 152 155 153 154 151 -169 170 167 168 55 54 52 53 201 202 203 -231 232 230 233 7 9 8 269 -243 240 146 148 147 150 149 145 179 181 180 248 247 275 -250 251 182 178 219 215 217 218 216 161 164 162 159 163 160 287 286 285 0 





OBJ=
2355.202
BEST_KNOWN=
0.000